(set-info :Origin "This instance was generated by: BanditFuzz-- an RL fuzzer for SMT solvers" )
(set-info :Author "Joe Scott, Fed Mora, Vijay Ganesh" )
(set-info :Contact "Joe Scott, joseph.scott@uwaterloo.ca")
(set-logic QF_BV)
(declare-const bool_0 Bool)
(declare-const bool_1 Bool)
(declare-const bool_2 Bool)
(declare-const bool_3 Bool)
(declare-const bool_4 Bool)
(declare-const bv_0 (_ BitVec 32))
(declare-const bv_1 (_ BitVec 32))
(declare-const bv_2 (_ BitVec 32))
(declare-const bv_3 (_ BitVec 32))
(declare-const bv_4 (_ BitVec 32))
(assert (bvsge (bvurem (bvlshr #x85499fb3  bv_0) (bvand bv_2 bv_0)) (bvurem (bvashr bv_3 bv_2) (bvnor bv_4 #x2fab6e79 ))))
(assert (xor (bvsle (bvand bv_4 bv_0) (bvlshr #xa65caf8c  #x8c006be1 )) (and (bvult bv_3 bv_1) (bvslt bv_1 #x61c3b9e0 ))))
(assert (bvslt (bvmul (bvsmod bv_0 #x878ecbd7 ) (bvsdiv bv_1 bv_0)) (bvudiv (bvnor #x4f13f0b7  bv_3) (bvxnor #x0b336558  bv_2))))
(assert (bvsge (bvashr (bvudiv #x22a36ff9  #x1cb0ba89 ) (bvlshr bv_4 bv_0)) (bvudiv (bvxor #x2be74543  bv_0) (bvadd bv_3 #x24782938 ))))
(assert (bvsle (bvlshr (bvshl #xd2754645  #xa5ac2515 ) (bvor bv_1 #x361ba953 )) (bvudiv (bvnor bv_3 bv_0) (bvsdiv #x4f014353  bv_0))))
(check-sat)
(exit)
